p cnf 60 211
1 2 3 4 0
5 6 7 8 0
9 10 11 12 0
13 14 15 16 0
17 18 19 20 0
21 22 23 24 0
25 26 27 28 0
29 30 31 32 0
33 34 35 36 0
37 38 39 40 0
41 42 43 44 0
45 46 47 48 0
49 50 51 52 0
53 54 55 56 0
57 58 59 60 0
-1 -5 0
-2 -6 0
-3 -7 0
-4 -8 0
-1 -9 0
-2 -10 0
-3 -11 0
-4 -12 0
-1 -25 0
-2 -26 0
-3 -27 0
-4 -28 0
-1 -29 0
-2 -30 0
-3 -31 0
-4 -32 0
-1 -33 0
-2 -34 0
-3 -35 0
-4 -36 0
-5 -9 0
-6 -10 0
-7 -11 0
-8 -12 0
-5 -13 0
-6 -14 0
-7 -15 0
-8 -16 0
-5 -17 0
-6 -18 0
-7 -19 0
-8 -20 0
-5 -21 0
-6 -22 0
-7 -23 0
-8 -24 0
-5 -29 0
-6 -30 0
-7 -31 0
-8 -32 0
-5 -41 0
-6 -42 0
-7 -43 0
-8 -44 0
-5 -45 0
-6 -46 0
-7 -47 0
-8 -48 0
-5 -49 0
-6 -50 0
-7 -51 0
-8 -52 0
-5 -53 0
-6 -54 0
-7 -55 0
-8 -56 0
-9 -13 0
-10 -14 0
-11 -15 0
-12 -16 0
-9 -17 0
-10 -18 0
-11 -19 0
-12 -20 0
-9 -25 0
-10 -26 0
-11 -27 0
-12 -28 0
-9 -29 0
-10 -30 0
-11 -31 0
-12 -32 0
-9 -37 0
-10 -38 0
-11 -39 0
-12 -40 0
-9 -49 0
-10 -50 0
-11 -51 0
-12 -52 0
-13 -25 0
-14 -26 0
-15 -27 0
-16 -28 0
-13 -29 0
-14 -30 0
-15 -31 0
-16 -32 0
-13 -33 0
-14 -34 0
-15 -35 0
-16 -36 0
-13 -37 0
-14 -38 0
-15 -39 0
-16 -40 0
-13 -41 0
-14 -42 0
-15 -43 0
-16 -44 0
-13 -53 0
-14 -54 0
-15 -55 0
-16 -56 0
-17 -21 0
-18 -22 0
-19 -23 0
-20 -24 0
-17 -45 0
-18 -46 0
-19 -47 0
-20 -48 0
-17 -49 0
-18 -50 0
-19 -51 0
-20 -52 0
-21 -37 0
-22 -38 0
-23 -39 0
-24 -40 0
-21 -41 0
-22 -42 0
-23 -43 0
-24 -44 0
-25 -29 0
-26 -30 0
-27 -31 0
-28 -32 0
-25 -41 0
-26 -42 0
-27 -43 0
-28 -44 0
-25 -45 0
-26 -46 0
-27 -47 0
-28 -48 0
-29 -33 0
-30 -34 0
-31 -35 0
-32 -36 0
-29 -49 0
-30 -50 0
-31 -51 0
-32 -52 0
-29 -53 0
-30 -54 0
-31 -55 0
-32 -56 0
-29 -57 0
-30 -58 0
-31 -59 0
-32 -60 0
-33 -37 0
-34 -38 0
-35 -39 0
-36 -40 0
-33 -41 0
-34 -42 0
-35 -43 0
-36 -44 0
-33 -57 0
-34 -58 0
-35 -59 0
-36 -60 0
-37 -45 0
-38 -46 0
-39 -47 0
-40 -48 0
-37 -49 0
-38 -50 0
-39 -51 0
-40 -52 0
-37 -53 0
-38 -54 0
-39 -55 0
-40 -56 0
-41 -49 0
-42 -50 0
-43 -51 0
-44 -52 0
-41 -53 0
-42 -54 0
-43 -55 0
-44 -56 0
-41 -57 0
-42 -58 0
-43 -59 0
-44 -60 0
-45 -49 0
-46 -50 0
-47 -51 0
-48 -52 0
-49 -57 0
-50 -58 0
-51 -59 0
-52 -60 0
